####################################################################### 
# 
# This file contains crystal structure data downloaded from the 
# Cambridge Structural Database (CSD) hosted by the Cambridge 
# Crystallographic Data Centre (CCDC).
# 
# Full information about CCDC data access policies and citation 
# guidelines are available at http://www.ccdc.cam.ac.uk/access/V1 
# 
# Audit and citation data items may have been added by the CCDC. 
# Please retain this information to preserve the provenance of 
# this file and to allow appropriate attribution of the data. 
# 
#######################################################################

data_sol1
_audit_block_doi                 10.5517/cc7sxsp
_database_code_depnum_ccdc_archive 'CCDC 232493'
loop_
_citation_id
_citation_doi
_citation_year
1 10.1016/j.tetlet.2004.05.120 2004
_audit_update_record             
;
2004-02-26 deposited with the CCDC.	2020-09-04 downloaded from the CCDC.
;

_audit_creation_method           SHELXL-97
_chemical_name_systematic        
;
?
;
_chemical_name_common            ?
_chemical_melting_point          ?
_chemical_formula_moiety         ?
_chemical_formula_sum            'C14 H18 N2 O2 S'
_chemical_formula_weight         278.36

loop_
_atom_type_symbol
_atom_type_description
_atom_type_scat_dispersion_real
_atom_type_scat_dispersion_imag
_atom_type_scat_source
C C 0.0033 0.0016 'International Tables Vol C Tables 4.2.6.8 and 6.1.1.4'
H H 0.0000 0.0000 'International Tables Vol C Tables 4.2.6.8 and 6.1.1.4'
N N 0.0061 0.0033 'International Tables Vol C Tables 4.2.6.8 and 6.1.1.4'
O O 0.0106 0.0060 'International Tables Vol C Tables 4.2.6.8 and 6.1.1.4'
S S 0.1246 0.1234 'International Tables Vol C Tables 4.2.6.8 and 6.1.1.4'

_symmetry_cell_setting           Monoclinic
_symmetry_space_group_name_H-M   C2

loop_
_symmetry_equiv_pos_as_xyz
'x, y, z'
'-x, y, -z'
'x+1/2, y+1/2, z'
'-x+1/2, y+1/2, -z'

_cell_length_a                   15.0056(18)
_cell_length_b                   6.3243(7)
_cell_length_c                   7.6861(9)
_cell_angle_alpha                90.00
_cell_angle_beta                 107.151(2)
_cell_angle_gamma                90.00
_cell_volume                     696.97(14)
_cell_formula_units_Z            2
_cell_measurement_temperature    110(2)
_cell_measurement_reflns_used    1850
_cell_measurement_theta_min      2.77
_cell_measurement_theta_max      28.15

_exptl_crystal_description       cubic
_exptl_crystal_colour            colorless
_exptl_crystal_size_max          ?
_exptl_crystal_size_mid          ?
_exptl_crystal_size_min          ?
_exptl_crystal_density_meas      0
_exptl_crystal_density_diffrn    1.326
_exptl_crystal_density_method    'not measured'
_exptl_crystal_F_000             296
_exptl_absorpt_coefficient_mu    0.232
_exptl_absorpt_correction_type   none
_exptl_absorpt_correction_T_min  ?
_exptl_absorpt_correction_T_max  ?
_exptl_absorpt_process_details   ?

_exptl_special_details           
;
?
;

_diffrn_ambient_temperature      110(2)
_diffrn_radiation_wavelength     0.71073
_diffrn_radiation_type           MoK\a
_diffrn_radiation_source         'fine-focus sealed tube'
_diffrn_radiation_monochromator  graphite
_diffrn_measurement_device_type  'CCD area detector'
_diffrn_measurement_method       'phi and omega scans'
_diffrn_detector_area_resol_mean ?
_diffrn_standards_number         ?
_diffrn_standards_interval_count ?
_diffrn_standards_interval_time  ?
_diffrn_standards_decay_%        ?
_diffrn_reflns_number            2149
_diffrn_reflns_av_R_equivalents  0.0115
_diffrn_reflns_av_sigmaI/netI    0.0205
_diffrn_reflns_limit_h_min       -19
_diffrn_reflns_limit_h_max       10
_diffrn_reflns_limit_k_min       -8
_diffrn_reflns_limit_k_max       7
_diffrn_reflns_limit_l_min       -9
_diffrn_reflns_limit_l_max       9
_diffrn_reflns_theta_min         2.84
_diffrn_reflns_theta_max         28.15
_reflns_number_total             1437
_reflns_number_gt                1412
_reflns_threshold_expression     >2sigma(I)

_computing_data_collection       'Bruker SMART'
_computing_cell_refinement       'Bruker SMART'
_computing_data_reduction        'Bruker SAINT'
_computing_structure_solution    'SHELXS-97 (Sheldrick, 1990)'
_computing_structure_refinement  'SHELXL-97 (Sheldrick, 1997)'
_computing_molecular_graphics    'Bruker SHELXTL'
_computing_publication_material  'Bruker SHELXTL'

_refine_special_details          
;
Refinement of F^2^ against ALL reflections.  The weighted R-factor wR and
goodness of fit S are based on F^2^, conventional R-factors R are based
on F, with F set to zero for negative F^2^. The threshold expression of
F^2^ > 2sigma(F^2^) is used only for calculating R-factors(gt) etc. and is
not relevant to the choice of reflections for refinement.  R-factors based
on F^2^ are statistically about twice as large as those based on F, and R-
factors based on ALL data will be even larger.
;

_refine_ls_structure_factor_coef Fsqd
_refine_ls_matrix_type           full
_refine_ls_weighting_scheme      calc
_refine_ls_weighting_details     
'calc w=1/[\s^2^(Fo^2^)+(0.0341P)^2^+0.4071P] where P=(Fo^2^+2Fc^2^)/3'
_atom_sites_solution_primary     direct
_atom_sites_solution_secondary   difmap
_atom_sites_solution_hydrogens   geom
_refine_ls_hydrogen_treatment    mixed
_refine_ls_extinction_method     none
_refine_ls_extinction_coef       ?
_refine_ls_abs_structure_details 'Flack H D (1983), Acta Cryst. A39, 876-881'
_refine_ls_abs_structure_Flack   -0.05(8)
_refine_ls_number_reflns         1437
_refine_ls_number_parameters     87
_refine_ls_number_restraints     1
_refine_ls_R_factor_all          0.0322
_refine_ls_R_factor_gt           0.0316
_refine_ls_wR_factor_ref         0.0769
_refine_ls_wR_factor_gt          0.0764
_refine_ls_goodness_of_fit_ref   1.105
_refine_ls_restrained_S_all      1.104
_refine_ls_shift/su_max          0.000
_refine_ls_shift/su_mean         0.000

loop_
_atom_site_label
_atom_site_type_symbol
_atom_site_fract_x
_atom_site_fract_y
_atom_site_fract_z
_atom_site_U_iso_or_equiv
_atom_site_adp_type
_atom_site_occupancy
_atom_site_symmetry_multiplicity
_atom_site_calc_flag
_atom_site_refinement_flags
_atom_site_disorder_assembly
_atom_site_disorder_group
S1 S 0.5000 0.11603(8) 0.0000 0.03191(16) Uani 1 2 d S . .
O1 O 0.61361(10) -0.1506(2) 0.47758(17) 0.0356(3) Uani 1 1 d . . .
N1 N 0.62650(13) 0.1835(3) 0.3824(2) 0.0404(4) Uani 1 1 d . . .
C1 C 0.52531(12) -0.2739(3) 0.0946(2) 0.0307(4) Uani 1 1 d . . .
H1B H 0.5434 -0.3985 0.1654 0.037 Uiso 1 1 calc R . .
C2 C 0.54458(12) -0.0744(3) 0.1617(2) 0.0266(4) Uani 1 1 d . . .
C3 C 0.59659(13) -0.0025(3) 0.3444(3) 0.0288(4) Uani 1 1 d . . .
C4 C 0.66565(14) -0.0412(3) 0.6432(3) 0.0332(4) Uani 1 1 d . . .
H4A H 0.7279 -0.1059 0.6954 0.040 Uiso 1 1 calc R . .
H4B H 0.6316 -0.0456 0.7356 0.040 Uiso 1 1 calc R . .
C5 C 0.67443(14) 0.1871(3) 0.5818(2) 0.0338(4) Uani 1 1 d . . .
H5A H 0.7419 0.2211 0.6027 0.041 Uiso 1 1 calc R . .
C6 C 0.63109(15) 0.3541(3) 0.6743(3) 0.0369(4) Uani 1 1 d . . .
H6A H 0.5677 0.3082 0.6721 0.044 Uiso 1 1 calc R . .
H6B H 0.6252 0.4884 0.6056 0.044 Uiso 1 1 calc R . .
C7 C 0.68950(14) 0.3916(4) 0.8711(3) 0.0386(4) Uani 1 1 d . . .
H7A H 0.6592 0.4988 0.9264 0.058 Uiso 1 1 calc R . .
H7B H 0.7518 0.4409 0.8735 0.058 Uiso 1 1 calc R . .
H7C H 0.6950 0.2593 0.9398 0.058 Uiso 1 1 calc R . .

loop_
_atom_site_aniso_label
_atom_site_aniso_U_11
_atom_site_aniso_U_22
_atom_site_aniso_U_33
_atom_site_aniso_U_23
_atom_site_aniso_U_13
_atom_site_aniso_U_12
S1 0.0415(3) 0.0266(3) 0.0276(3) 0.000 0.0102(2) 0.000
O1 0.0459(8) 0.0285(6) 0.0277(6) 0.0028(5) 0.0034(6) 0.0010(6)
N1 0.0564(10) 0.0390(9) 0.0247(8) -0.0004(7) 0.0103(7) -0.0142(8)
C1 0.0341(8) 0.0210(9) 0.0350(10) 0.0014(7) 0.0072(7) 0.0006(7)
C2 0.0285(8) 0.0262(8) 0.0259(8) 0.0032(6) 0.0097(7) 0.0013(7)
C3 0.0294(9) 0.0322(10) 0.0265(9) 0.0023(7) 0.0108(7) 0.0015(7)
C4 0.0371(10) 0.0355(11) 0.0249(9) -0.0032(8) 0.0061(8) 0.0051(8)
C5 0.0385(9) 0.0369(10) 0.0260(8) -0.0020(7) 0.0093(7) -0.0100(8)
C6 0.0485(11) 0.0257(8) 0.0300(9) 0.0025(7) 0.0016(8) -0.0025(8)
C7 0.0409(10) 0.0391(11) 0.0332(9) -0.0058(9) 0.0069(8) -0.0016(9)

_geom_special_details            
;
All esds (except the esd in the dihedral angle between two l.s. planes)
are estimated using the full covariance matrix.  The cell esds are taken
into account individually in the estimation of esds in distances, angles
and torsion angles; correlations between esds in cell parameters are only
used when they are defined by crystal symmetry.  An approximate (isotropic)
treatment of cell esds is used for estimating esds involving l.s. planes.
;

loop_
_geom_bond_atom_site_label_1
_geom_bond_atom_site_label_2
_geom_bond_distance
_geom_bond_site_symmetry_2
_geom_bond_publ_flag
S1 C2 1.7182(18) 2_655 ?
S1 C2 1.7182(18) . ?
O1 C3 1.355(2) . ?
O1 C4 1.457(2) . ?
N1 C3 1.262(2) . ?
N1 C5 1.489(2) . ?
C1 C2 1.361(2) . ?
C1 C1 1.429(4) 2_655 ?
C1 H1B 0.9500 . ?
C2 C3 1.464(2) . ?
C4 C5 1.537(3) . ?
C4 H4A 0.9900 . ?
C4 H4B 0.9900 . ?
C5 C6 1.522(3) . ?
C5 H5A 1.0000 . ?
C6 C7 1.527(3) . ?
C6 H6A 0.9900 . ?
C6 H6B 0.9900 . ?
C7 H7A 0.9800 . ?
C7 H7B 0.9800 . ?
C7 H7C 0.9800 . ?

loop_
_geom_angle_atom_site_label_1
_geom_angle_atom_site_label_2
_geom_angle_atom_site_label_3
_geom_angle
_geom_angle_site_symmetry_1
_geom_angle_site_symmetry_3
_geom_angle_publ_flag
C2 S1 C2 90.98(12) 2_655 . ?
C3 O1 C4 105.37(14) . . ?
C3 N1 C5 106.44(15) . . ?
C2 C1 C1 112.04(10) . 2_655 ?
C2 C1 H1B 124.0 . . ?
C1 C1 H1B 124.0 2_655 . ?
C1 C2 C3 130.17(17) . . ?
C1 C2 S1 112.46(14) . . ?
C3 C2 S1 117.37(14) . . ?
N1 C3 O1 119.65(16) . . ?
N1 C3 C2 124.34(18) . . ?
O1 C3 C2 116.00(16) . . ?
O1 C4 C5 104.47(14) . . ?
O1 C4 H4A 110.9 . . ?
C5 C4 H4A 110.9 . . ?
O1 C4 H4B 110.9 . . ?
C5 C4 H4B 110.9 . . ?
H4A C4 H4B 108.9 . . ?
N1 C5 C6 110.37(17) . . ?
N1 C5 C4 104.06(14) . . ?
C6 C5 C4 114.91(16) . . ?
N1 C5 H5A 109.1 . . ?
C6 C5 H5A 109.1 . . ?
C4 C5 H5A 109.1 . . ?
C5 C6 C7 111.79(17) . . ?
C5 C6 H6A 109.3 . . ?
C7 C6 H6A 109.3 . . ?
C5 C6 H6B 109.3 . . ?
C7 C6 H6B 109.3 . . ?
H6A C6 H6B 107.9 . . ?
C6 C7 H7A 109.5 . . ?
C6 C7 H7B 109.5 . . ?
H7A C7 H7B 109.5 . . ?
C6 C7 H7C 109.5 . . ?
H7A C7 H7C 109.5 . . ?
H7B C7 H7C 109.5 . . ?

loop_
_geom_torsion_atom_site_label_1
_geom_torsion_atom_site_label_2
_geom_torsion_atom_site_label_3
_geom_torsion_atom_site_label_4
_geom_torsion
_geom_torsion_site_symmetry_1
_geom_torsion_site_symmetry_2
_geom_torsion_site_symmetry_3
_geom_torsion_site_symmetry_4
_geom_torsion_publ_flag
C1 C1 C2 C3 -178.02(19) 2_655 . . . ?
C1 C1 C2 S1 1.4(2) 2_655 . . . ?
C2 S1 C2 C1 -0.52(9) 2_655 . . . ?
C2 S1 C2 C3 178.97(17) 2_655 . . . ?
C5 N1 C3 O1 -1.3(3) . . . . ?
C5 N1 C3 C2 179.74(17) . . . . ?
C4 O1 C3 N1 0.8(2) . . . . ?
C4 O1 C3 C2 179.83(15) . . . . ?
C1 C2 C3 N1 164.8(2) . . . . ?
S1 C2 C3 N1 -14.6(3) . . . . ?
C1 C2 C3 O1 -14.2(3) . . . . ?
S1 C2 C3 O1 166.41(13) . . . . ?
C3 O1 C4 C5 0.09(19) . . . . ?
C3 N1 C5 C6 -122.60(18) . . . . ?
C3 N1 C5 C4 1.2(2) . . . . ?
O1 C4 C5 N1 -0.8(2) . . . . ?
O1 C4 C5 C6 120.05(16) . . . . ?
N1 C5 C6 C7 -169.19(16) . . . . ?
C4 C5 C6 C7 73.5(2) . . . . ?

_diffrn_measured_fraction_theta_max 0.923
_diffrn_reflns_theta_full        28.15
_diffrn_measured_fraction_theta_full 0.923
_refine_diff_density_max         0.195
_refine_diff_density_min         -0.209
_refine_diff_density_rms         0.048
